
Gurobi 7.0.1 (win64) logging started 01/31/18 14:01:20

Set parameter TimeLimit to value 3600
Set parameter Threads to value 4

Gurobi Optimizer version 7.0.1 build v7.0.1rc0 (win64)
Copyright (c) 2016, Gurobi Optimization, Inc.

Read LP format model from file waterstop_5_180114_kadou40.lp
Reading time = 0.16 seconds
Objective: 31902 rows, 11244 columns, 123944 nonzeros
Optimize a model with 31902 rows, 11244 columns and 123944 nonzeros
Variable types: 72 continuous, 11172 integer (0 binary)
Coefficient statistics:
  Matrix range     [3e-01, 1e+02]
  Objective range  [1e+00, 1e+00]
  Bounds range     [1e+00, 1e+00]
  RHS range        [1e+00, 1e+02]
Presolve removed 14572 rows and 2296 columns
Presolve time: 0.89s
Presolved: 17330 rows, 8948 columns, 69580 nonzeros
Variable types: 44 continuous, 8904 integer (8904 binary)

Root relaxation: objective 0.000000e+00, 4568 iterations, 0.99 seconds

    Nodes    |    Current Node    |     Objective Bounds      |     Work
 Expl Unexpl |  Obj  Depth IntInf | Incumbent    BestBd   Gap | It/Node Time

     0     0    0.00000    0  132          -    0.00000      -     -    4s
     0     0    0.00000    0  166          -    0.00000      -     -    6s
     0     0    0.00000    0  164          -    0.00000      -     -    6s
     0     0    0.00000    0  154          -    0.00000      -     -    7s
     0     0    0.00000    0  148          -    0.00000      -     -    7s
     0     0    0.00000    0  163          -    0.00000      -     -    8s
     0     0    0.00000    0  156          -    0.00000      -     -    8s
     0     0    0.00000    0   43          -    0.00000      -     -   10s
     0     0    0.00000    0   43          -    0.00000      -     -   11s
     0     0    0.00000    0   46          -    0.00000      -     -   12s
     0     0    0.00000    0   85          -    0.00000      -     -   13s
     0     0    0.00000    0   52          -    0.00000      -     -   16s
     0     0    0.00000    0   50          -    0.00000      -     -   19s
H    0     0                      65.0303030    0.00000   100%     -   19s
     0     0    0.00000    0   74   65.03030    0.00000   100%     -   21s
     0     0    0.00000    0   74   65.03030    0.00000   100%     -   21s
H    0     0                      61.8787879    0.00000   100%     -   22s
     0     2    0.00000    0   74   61.87879    0.00000   100%     -   23s
     3     8    0.00000    2  107   61.87879    0.00000   100%  1224   25s
    19    19    0.21675    6  532   61.87879    0.00000   100%  1039   30s
H   30    32                      50.6363636    0.00000   100%   963   33s
    31    30    6.03030    7  173   50.63636    0.00000   100%  1073   35s
    77    81    6.03030   18  185   50.63636    0.00000   100%   820   41s
   174   175    6.03030   57  154   50.63636    0.00000   100%   658   46s
H  216   192                      32.2121212    0.00000   100%   603   49s
H  227   209                      20.1818182    0.00000   100%   606   49s
H  227   203                      18.9090909    0.00000   100%   606   49s
   236   213     cutoff   77        18.90909    0.00000   100%   608   52s
H  258   220                      18.1212121    0.00000   100%   596   52s
   302   262   10.37576   11  150   18.12121    0.00000   100%   582   57s
   383   321   17.37611   19  130   18.12121    0.00000   100%   537   61s
   491   392   11.03030   14  140   18.12121    0.00000   100%   484   65s
   623   479   14.90909   40  117   18.12121    0.00000   100%   476   71s
   698   556   11.03030   56  104   18.12121    0.00000   100%   455   75s
   790   617     cutoff   75        18.12121    0.00000   100%   444   93s
H  830   561                      16.3939394    0.00000   100%   449   93s
   831   558    9.14545    6  105   16.39394    0.00000   100%   450  110s
   930   619    0.00000   11  147   16.39394    0.00000   100%   466  127s
   959   639    0.63918   19  354   16.39394    0.00000   100%   477  131s
  1061   714    0.00000   23   74   16.39394    0.00000   100%   464  140s
  1063   715    6.03030   29   64   16.39394    0.00000   100%   463  145s
  1064   716   12.06061   16  105   16.39394    0.00000   100%   463  153s
  1066   717    0.90555   25   83   16.39394    0.00000   100%   462  160s
  1068   719    6.03030   60  122   16.39394    0.00000   100%   461  165s
  1070   720    6.03030   34  132   16.39394    0.00000   100%   460  176s
  1072   721   16.36364   72  146   16.39394    0.00000   100%   459  183s
  1073   722    0.00000   20  171   16.39394    0.00000   100%   459  185s
  1074   723   11.03030   37  144   16.39394    0.00000   100%   458  191s
  1076   724   11.03030   25  144   16.39394    0.00000   100%   458  200s
H 1077   688                      14.2727273    0.00000   100%   457  210s
  1080   690    6.03030   52  122   14.27273    0.00000   100%   456  220s
  1081   690    0.01389   23  562   14.27273    0.01389   100%   455  226s
H 1081   655                       9.1818182    0.15748  98.3%   455  231s
  1084   657    9.18182   16  479    9.18182    0.33436  96.4%   454  235s
  1086   659    1.63293   25  144    9.18182    1.63293  82.2%   453  253s
  1087   659    9.18182   20  401    9.18182    1.69550  81.5%   453  257s
  1088   660    6.03030   60  249    9.18182    2.05315  77.6%   453  278s
  1089   661    9.18182   57  399    9.18182    2.45679  73.2%   452  281s
  1090   661    6.03030   34  238    9.18182    2.62816  71.4%   452  297s
  1092   663    9.18182   72  367    9.18182    2.76212  69.9%   451  308s
  1093   663    3.17839   20  335    9.18182    3.17839  65.4%   450  315s
  1094   664    9.18182   37  206    9.18182    3.44217  62.5%   450  327s
  1095   665    9.18182   18  309    9.18182    3.74095  59.3%   450  330s
  1096   665    9.18182   25  104    9.18182    3.78788  58.7%   449  340s
  1098   667    9.18182   82  100    9.18182    3.78788  58.7%   448  350s
  1100   668    6.03030   52   84    9.18182    3.78788  58.7%   448  358s
  1102   669    6.03030   20  163    9.18182    3.78788  58.7%   447  366s
  1104   671    9.18182   16  141    9.18182    3.78788  58.7%   446  372s
  1106   672    3.78788   25   90    9.18182    3.78788  58.7%   445  380s
  1111   676    9.18182   17  103    9.18182    3.78788  58.7%   810  387s
  1112   677    9.18182   72  139    9.18182    3.78788  58.7%   809  397s
  1113   678    3.78788   20  214    9.18182    3.78788  58.7%   808  400s
  1114   678    9.18182   37   90    9.18182    3.78788  58.7%   807  407s
  1116   680    9.18182   25  133    9.18182    3.78788  58.7%   806  413s
  1118   681    9.18182   82  141    9.18182    3.78788  58.7%   804  421s
  1120   682    6.03030   52  132    9.18182    3.78788  58.7%   803  428s
  1122   684    6.03030   20  140    9.18182    6.03030  34.3%   802  435s
  1124   685    9.18182   16   73    9.18182    6.03030  34.3%   800  443s
H 1125   651                       9.1818182    6.03030  34.3%   799  449s
  1126   651    6.03030   25   80    9.18182    6.03030  34.3%   799  450s
  1128   653    6.03030   60   66    9.18182    6.03030  34.3%   797  457s
  1130   654    6.03030   34   77    9.18182    6.03030  34.3%   796  462s
  1133   657    6.03030   27   63    9.18182    6.03030  34.3%   943  469s
  1135   656    6.03030   28  301    9.18182    6.03030  34.3%   944  479s
  1137   656    6.03030   29  190    9.18182    6.03030  34.3%   944  484s
  1139   657    6.03030   30  190    9.18182    6.03030  34.3%   943  489s
  1141   658    6.03030   31  170    9.18182    6.03030  34.3%   943  494s
  1145   660    6.03030   32  146    9.18182    6.03030  34.3%   942  500s
  1149   660    6.03030   33  136    9.18182    6.03030  34.3%   942  505s
  1153   657    6.92870   33  235    9.18182    6.03030  34.3%   958  520s
  1158   657    6.03030   34  219    9.18182    6.03030  34.3%   959  525s
  1167   664    6.03030   35  129    9.18182    6.03030  34.3%   959  530s
  1180   666    6.03030   37   98    9.18182    6.03030  34.3%   955  535s
H 1193   624                       6.0303030    6.03030  0.00%   954  539s

Cutting planes:
  Cover: 1
  Implied bound: 53
  Flow cover: 3
  Zero half: 10

Explored 1198 nodes (1201144 simplex iterations) in 539.69 seconds
Thread count was 4 (of 20 available processors)

Solution count 10: 6.0303 9.18182 9.18182 ... 50.6364
Pool objective bound 6.0303

Optimal solution found (tolerance 1.00e-04)
Best objective 6.030303030303e+00, best bound 6.030303030303e+00, gap 0.0000%

Wrote result file 'waterstop_5_180114_kadou40.sol'

